W=5;
H=5;

MAX_TIME=10;
MAX_TRACKS=5;

TARGET=(3,5);

TRAINS=[(5,1,TOP),(1,5,LEFT)];
DECOYS=[];

INIT_POS=[
(1,2,STRAIGHT_RL),
(1,5,STRAIGHT_RL),
(3,1,DSWITCH_T_D_R),
(3,2,STRAIGHT_RL),
(3,3,STRAIGHT_RL),
(3,4,STRAIGHT_RL),
(3,5,STRAIGHT_RL),
(5,1,STRAIGHT_TD),
];
TUNNEL_PAIRS=[];

GATES=[];
ACTIVATIONS=[
(1,2,1),
];

DSWITCHES=[
(3,1,1),
];
STATIONS=[];

SEMAPHORE_SUPPLY=0;
